0 1 2 3 4 1 2 3 4 5 2 3 4 5 6 3 4 5 6 7
1 0 1 2 3 2 1 2 3 4 3 2 3 4 5 4 3 4 5 6
2 1 0 1 2 3 2 1 2 3 4 3 2 3 4 5 4 3 4 5
3 2 1 0 1 4 3 2 1 2 5 4 3 2 3 6 5 4 3 4
4 3 2 1 0 5 4 3 2 1 6 5 4 3 2 7 6 5 4 3
1 2 3 4 5 0 1 2 3 4 1 2 3 4 5 2 3 4 5 6
2 1 2 3 4 1 0 1 2 3 2 1 2 3 4 3 2 3 4 5
3 2 1 2 3 2 1 0 1 2 3 2 1 2 3 4 3 2 3 4
4 3 2 1 2 3 2 1 0 1 4 3 2 1 2 5 4 3 2 3
5 4 3 2 1 4 3 2 1 0 5 4 3 2 1 6 5 4 3 2
2 3 4 5 6 1 2 3 4 5 0 1 2 3 4 1 2 3 4 5
3 2 3 4 5 2 1 2 3 4 1 0 1 2 3 2 1 2 3 4
4 3 2 3 4 3 2 1 2 3 2 1 0 1 2 3 2 1 2 3
5 4 3 2 3 4 3 2 1 2 3 2 1 0 1 4 3 2 1 2
6 5 4 3 2 5 4 3 2 1 4 3 2 1 0 5 4 3 2 1
3 4 5 6 7 2 3 4 5 6 1 2 3 4 5 0 1 2 3 4
4 3 4 5 6 3 2 3 4 5 2 1 2 3 4 1 0 1 2 3
5 4 3 4 5 4 3 2 3 4 3 2 1 2 3 2 1 0 1 2
6 5 4 3 4 5 4 3 2 3 4 3 2 1 2 3 2 1 0 1
7 6 5 4 3 6 5 4 3 2 5 4 3 2 1 4 3 2 1 0